(declare-sort sk 0)
(declare-datatype list ((nil) (cons (head sk) (tail list))))
(declare-datatype Nat ((Z) (S (proj1-S Nat))))
(define-fun-rec
  take
  ((x Nat) (y list)) list
  (match x
    ((Z nil)
     ((S z)
      (match y
        ((nil nil)
         ((cons x2 x3) (cons x2 (take z x3)))))))))
(assert
  (not
    (forall ((n Nat) (x sk) (xs list))
      (= (take (S n) (cons x xs)) (cons x (take n xs))))))
(check-sat)
